============================[ Problem Statistics ]=============================|                                                                             ||  Number of variables:          4242                                         ||  Number of clauses:            9828                                         ||  Parse time:                   0.23 s                                       ||                                                                             |============================[ Search Statistics ]==============================| Conflicts |          ORIGINAL         |          LEARNT          | Progress ||           |    Vars  Clauses Literals |    Limit  Clauses Lit/Cl |          |===============================================================================|       100 |    1591     6033   345904 |     2212      100     53 | 62.501 % |===============================================================================restarts              : 2conflicts             : 135            (362 /sec)decisions             : 305            (0.00 % random) (818 /sec)propagations          : 9924           (26606 /sec)conflict literals     : 8369           (95.54 % deleted)CPU time              : 0.373 sSATISFIABLE